benchmark/results/graph__15-1000-0.10-03_18/graph__15-1000-0.10-03_18_Quinton_Benders_primal_sub.lp
\ This file has been generated by DOcplex
\ ENCODING=ISO-8859-1
\Problem name: Quinton Benders_primal_sub

Maximize
 obj: tau
Subject To
 c1: tau <= 0.000813008130
 c2: y_a0_proc_0 + y_a0_proc_1 + y_a0_proc_2 - tau = 0
 c3: y_a0_proc_0 <= 0
 c4: y_a0_proc_1 <= 1
 c5: y_a0_proc_2 <= 0
 c6: tau <= 0.000813008130
 c7: y_a1_proc_0 + y_a1_proc_1 + y_a1_proc_2 - tau = 0
 c8: y_a1_proc_0 <= 0
 c9: y_a1_proc_1 <= 1
 c10: y_a1_proc_2 <= 0
 c11: tau <= 0.002016129032
 c12: y_a2_proc_0 + y_a2_proc_1 - tau = 0
 c13: y_a2_proc_0 <= 0
 c14: y_a2_proc_1 <= 1
 c15: tau <= 0.001992031873
 c16: y_a3_proc_0 + y_a3_proc_1 + y_a3_proc_2 - tau = 0
 c17: y_a3_proc_0 <= 0
 c18: y_a3_proc_1 <= 1
 c19: y_a3_proc_2 <= 0
 c20: tau <= 0.001338688086
 c21: y_a4_proc_0 + y_a4_proc_1 + y_a4_proc_2 - tau = 0
 c22: y_a4_proc_0 <= 0
 c23: y_a4_proc_1 <= 0
 c24: y_a4_proc_2 <= 1
 c25: tau <= 0.001562500000
 c26: y_a5_proc_0 + y_a5_proc_1 + y_a5_proc_2 - tau = 0
 c27: y_a5_proc_0 <= 1
 c28: y_a5_proc_1 <= 0
 c29: y_a5_proc_2 <= 0
 c30: tau <= 0.000888099467
 c31: y_a6_proc_0 + y_a6_proc_1 + y_a6_proc_2 - tau = 0
 c32: y_a6_proc_0 <= 1
 c33: y_a6_proc_1 <= 0
 c34: y_a6_proc_2 <= 0
 c35: tau <= 0.002512562814
 c36: y_a7_proc_0 + y_a7_proc_1 - tau = 0
 c37: y_a7_proc_0 <= 0
 c38: y_a7_proc_1 <= 1
 c39: tau <= 0.000851063830
 c40: y_a8_proc_2 - tau = 0
 c41: y_a8_proc_2 <= 1
 c42: tau <= 0.001196172249
 c43: y_a9_proc_1 + y_a9_proc_2 - tau = 0
 c44: y_a9_proc_1 <= 0
 c45: y_a9_proc_2 <= 1
 c46: tau <= 0.001686340641
 c47: y_a10_proc_0 + y_a10_proc_1 + y_a10_proc_2 - tau = 0
 c48: y_a10_proc_0 <= 1
 c49: y_a10_proc_1 <= 0
 c50: y_a10_proc_2 <= 0
 c51: tau <= 0.002506265664
 c52: y_a11_proc_0 + y_a11_proc_1 + y_a11_proc_2 - tau = 0
 c53: y_a11_proc_0 <= 0
 c54: y_a11_proc_1 <= 0
 c55: y_a11_proc_2 <= 1
 c56: tau <= 0.001077586207
 c57: y_a12_proc_0 + y_a12_proc_1 - tau = 0
 c58: y_a12_proc_0 <= 0
 c59: y_a12_proc_1 <= 1
 c60: tau <= 0.001063829787
 c61: y_a13_proc_0 + y_a13_proc_2 - tau = 0
 c62: y_a13_proc_0 <= 1
 c63: y_a13_proc_2 <= 0
 c64: tau <= 0.002232142857
 c65: y_a14_proc_0 + y_a14_proc_1 + y_a14_proc_2 - tau = 0
 c66: y_a14_proc_0 <= 0
 c67: y_a14_proc_1 <= 0
 c68: y_a14_proc_2 <= 1
 c69: u_a1 - u_a0 - 736 y_a0_proc_0 - 1230 y_a0_proc_1 - 1298 y_a0_proc_2 >= -1
 c70: u_a0 - u_a2 - 532 y_a2_proc_0 - 496 y_a2_proc_1 >= -1
 c71: u_a0 - u_a3 - 505 y_a3_proc_0 - 502 y_a3_proc_1 - 1063 y_a3_proc_2 >= 0
 c72: u_a2 - u_a4 - 1257 y_a4_proc_0 - 782 y_a4_proc_1 - 747 y_a4_proc_2 >= 0
 c73: u_a5 - u_a1 - 932 y_a1_proc_0 - 1230 y_a1_proc_1 - 712 y_a1_proc_2 >= 0
 c74: u_a5 - u_a6 - 1126 y_a6_proc_0 - 1261 y_a6_proc_1 - 771 y_a6_proc_2 >= -1
 c75: u_a7 - u_a1 - 932 y_a1_proc_0 - 1230 y_a1_proc_1 - 712 y_a1_proc_2 >= 0
 c76: u_a5 - u_a8 - 1175 y_a8_proc_2 >= -1
 c77: u_a9 - u_a7 - 431 y_a7_proc_0 - 398 y_a7_proc_1 >= 0
 c78: u_a10 - u_a1 - 932 y_a1_proc_0 - 1230 y_a1_proc_1 - 712 y_a1_proc_2 >= 0
 c79: u_a6 - u_a11 - 426 y_a11_proc_0 - 939 y_a11_proc_1 - 399 y_a11_proc_2 >= 
      0
 c80: u_a8 - u_a12 - 701 y_a12_proc_0 - 928 y_a12_proc_1 >= 0
 c81: u_a13 - u_a5 - 640 y_a5_proc_0 - 1217 y_a5_proc_1 - 1050 y_a5_proc_2 >= 0
 c82: u_a14 - u_a2 - 532 y_a2_proc_0 - 496 y_a2_proc_1 >= -1
 c83: u_a3 - u_a10 - 593 y_a10_proc_0 - 1287 y_a10_proc_1 - 1069 y_a10_proc_2
       >= 0
 c84: u_a11 - u_a6 - 1126 y_a6_proc_0 - 1261 y_a6_proc_1 - 771 y_a6_proc_2 >= 
      -1
 c85: u_a4 - u_a12 - 701 y_a12_proc_0 - 928 y_a12_proc_1 >= 0
 c86: u_a12 - u_a14 - 982 y_a14_proc_0 - 1177 y_a14_proc_1 - 448 y_a14_proc_2
       >= 0
 c87: u_a13 - u_a9 - 1088 y_a9_proc_1 - 836 y_a9_proc_2 >= 0
 c88: u_a3 - u_a13 - 940 y_a13_proc_0 - 1203 y_a13_proc_2 >= 0
 c89: u_a3 - u_a11 - 426 y_a11_proc_0 - 939 y_a11_proc_1 - 399 y_a11_proc_2 >= 
      -1
 c90: u_a4 - u_a6 - 1126 y_a6_proc_0 - 1261 y_a6_proc_1 - 771 y_a6_proc_2 >= 0
 c91: u_a8 - u_a5 - 640 y_a5_proc_0 - 1217 y_a5_proc_1 - 1050 y_a5_proc_2 >= 0
 c92: u_a11 - u_a14 - 982 y_a14_proc_0 - 1177 y_a14_proc_1 - 448 y_a14_proc_2
       >= 0
 c93: u_a10 - u_a14 - 982 y_a14_proc_0 - 1177 y_a14_proc_1 - 448 y_a14_proc_2
       >= -1
 c94: u_a2 - u_a11 - 426 y_a11_proc_0 - 939 y_a11_proc_1 - 399 y_a11_proc_2 >= 
      0
 c95: u_a14 - u_a5 - 640 y_a5_proc_0 - 1217 y_a5_proc_1 - 1050 y_a5_proc_2 >= 0
 c96: u_a1 - u_a0 - 1298 y_a0_proc_2 >= -2597
 c97: u_a1 - u_a0 - 736 y_a0_proc_0 >= -2597
 c98: u_a1 - u_a0 - 1230 y_a0_proc_1 >= -1
 c99: u_a0 - u_a1 - 712 y_a1_proc_2 >= -2596
 c100: u_a0 - u_a1 - 932 y_a1_proc_0 >= -2596
 c101: u_a0 - u_a1 - 1230 y_a1_proc_1 >= 0
 c102: u_a2 - u_a0 - 736 y_a0_proc_0 >= -2596
 c103: u_a2 - u_a0 - 1230 y_a0_proc_1 >= 0
 c104: u_a0 - u_a2 - 532 y_a2_proc_0 >= -2597
 c105: u_a0 - u_a2 - 496 y_a2_proc_1 >= -1
 c106: u_a3 - u_a0 - 1298 y_a0_proc_2 >= -2597
 c107: u_a3 - u_a0 - 736 y_a0_proc_0 >= -2597
 c108: u_a3 - u_a0 - 1230 y_a0_proc_1 >= -1
 c109: u_a0 - u_a3 - 1063 y_a3_proc_2 >= -2596
 c110: u_a0 - u_a3 - 505 y_a3_proc_0 >= -2596
 c111: u_a0 - u_a3 - 502 y_a3_proc_1 >= 0
 c112: u_a4 - u_a0 - 1298 y_a0_proc_2 >= -2596
 c113: u_a4 - u_a0 - 736 y_a0_proc_0 >= -3894
 c114: u_a4 - u_a0 - 1230 y_a0_proc_1 >= -2596
 c115: u_a0 - u_a4 - 747 y_a4_proc_2 >= -1
 c116: u_a0 - u_a4 - 1257 y_a4_proc_0 >= -1299
 c117: u_a0 - u_a4 - 782 y_a4_proc_1 >= -1
 c118: u_a5 - u_a0 - 1298 y_a0_proc_2 >= -3895
 c119: u_a5 - u_a0 - 736 y_a0_proc_0 >= -2597
 c120: u_a5 - u_a0 - 1230 y_a0_proc_1 >= -2597
 c121: u_a0 - u_a5 - 1050 y_a5_proc_2 >= -1298
 c122: u_a0 - u_a5 - 640 y_a5_proc_0 >= 0
 c123: u_a0 - u_a5 - 1217 y_a5_proc_1 >= 0
 c124: u_a6 - u_a0 - 1298 y_a0_proc_2 >= -1299
 c125: u_a6 - u_a0 - 736 y_a0_proc_0 >= -1
 c126: u_a6 - u_a0 - 1230 y_a0_proc_1 >= -1
 c127: u_a0 - u_a6 - 771 y_a6_proc_2 >= -3894
 c128: u_a0 - u_a6 - 1126 y_a6_proc_0 >= -2596
 c129: u_a0 - u_a6 - 1261 y_a6_proc_1 >= -2596
 c130: u_a7 - u_a0 - 736 y_a0_proc_0 >= -2597
 c131: u_a7 - u_a0 - 1230 y_a0_proc_1 >= -1
 c132: u_a0 - u_a7 - 431 y_a7_proc_0 >= -2596
 c133: u_a0 - u_a7 - 398 y_a7_proc_1 >= 0
 c134: u_a8 - u_a0 - 1298 y_a0_proc_2 >= 0
 c135: u_a0 - u_a8 - 1175 y_a8_proc_2 >= -2597
 c136: u_a9 - u_a0 - 1298 y_a0_proc_2 >= -2597
 c137: u_a9 - u_a0 - 1230 y_a0_proc_1 >= -2597
 c138: u_a0 - u_a9 - 836 y_a9_proc_2 >= 0
 c139: u_a0 - u_a9 - 1088 y_a9_proc_1 >= 0
 c140: u_a10 - u_a0 - 1298 y_a0_proc_2 >= -1299
 c141: u_a10 - u_a0 - 736 y_a0_proc_0 >= -1
 c142: u_a10 - u_a0 - 1230 y_a0_proc_1 >= -1
 c143: u_a0 - u_a10 - 1069 y_a10_proc_2 >= -3894
 c144: u_a0 - u_a10 - 593 y_a10_proc_0 >= -2596
 c145: u_a0 - u_a10 - 1287 y_a10_proc_1 >= -2596
 c146: u_a11 - u_a0 - 1298 y_a0_proc_2 >= -1
 c147: u_a11 - u_a0 - 736 y_a0_proc_0 >= -1299
 c148: u_a11 - u_a0 - 1230 y_a0_proc_1 >= -1
 c149: u_a0 - u_a11 - 399 y_a11_proc_2 >= -2596
 c150: u_a0 - u_a11 - 426 y_a11_proc_0 >= -3894
 c151: u_a0 - u_a11 - 939 y_a11_proc_1 >= -2596
 c152: u_a12 - u_a0 - 736 y_a0_proc_0 >= -2597
 c153: u_a12 - u_a0 - 1230 y_a0_proc_1 >= -1
 c154: u_a0 - u_a12 - 701 y_a12_proc_0 >= -2596
 c155: u_a0 - u_a12 - 928 y_a12_proc_1 >= 0
 c156: u_a13 - u_a0 - 1298 y_a0_proc_2 >= -3895
 c157: u_a13 - u_a0 - 736 y_a0_proc_0 >= -2597
 c158: u_a0 - u_a13 - 1203 y_a13_proc_2 >= -1298
 c159: u_a0 - u_a13 - 940 y_a13_proc_0 >= 0
 c160: u_a14 - u_a0 - 1298 y_a0_proc_2 >= -2597
 c161: u_a14 - u_a0 - 736 y_a0_proc_0 >= -3895
 c162: u_a14 - u_a0 - 1230 y_a0_proc_1 >= -2597
 c163: u_a0 - u_a14 - 448 y_a14_proc_2 >= 0
 c164: u_a0 - u_a14 - 982 y_a14_proc_0 >= -1298
 c165: u_a0 - u_a14 - 1177 y_a14_proc_1 >= 0
 c166: u_a2 - u_a1 - 932 y_a1_proc_0 >= -2595
 c167: u_a2 - u_a1 - 1230 y_a1_proc_1 >= 1
 c168: u_a1 - u_a2 - 532 y_a2_proc_0 >= -2598
 c169: u_a1 - u_a2 - 496 y_a2_proc_1 >= -2
 c170: u_a3 - u_a1 - 712 y_a1_proc_2 >= -2596
 c171: u_a3 - u_a1 - 932 y_a1_proc_0 >= -2596
 c172: u_a3 - u_a1 - 1230 y_a1_proc_1 >= 0
 c173: u_a1 - u_a3 - 1063 y_a3_proc_2 >= -2597
 c174: u_a1 - u_a3 - 505 y_a3_proc_0 >= -2597
 c175: u_a1 - u_a3 - 502 y_a3_proc_1 >= -1
 c176: u_a4 - u_a1 - 712 y_a1_proc_2 >= -2595
 c177: u_a4 - u_a1 - 932 y_a1_proc_0 >= -3893
 c178: u_a4 - u_a1 - 1230 y_a1_proc_1 >= -2595
 c179: u_a1 - u_a4 - 747 y_a4_proc_2 >= -2
 c180: u_a1 - u_a4 - 1257 y_a4_proc_0 >= -1300
 c181: u_a1 - u_a4 - 782 y_a4_proc_1 >= -2
 c182: u_a5 - u_a1 - 712 y_a1_proc_2 >= -3894
 c183: u_a5 - u_a1 - 932 y_a1_proc_0 >= -2596
 c184: u_a5 - u_a1 - 1230 y_a1_proc_1 >= -2596
 c185: u_a1 - u_a5 - 1050 y_a5_proc_2 >= -1299
 c186: u_a1 - u_a5 - 640 y_a5_proc_0 >= -1
 c187: u_a1 - u_a5 - 1217 y_a5_proc_1 >= -1
 c188: u_a6 - u_a1 - 712 y_a1_proc_2 >= -1298
 c189: u_a6 - u_a1 - 932 y_a1_proc_0 >= 0
 c190: u_a6 - u_a1 - 1230 y_a1_proc_1 >= 0
 c191: u_a1 - u_a6 - 771 y_a6_proc_2 >= -3895
 c192: u_a1 - u_a6 - 1126 y_a6_proc_0 >= -2597
 c193: u_a1 - u_a6 - 1261 y_a6_proc_1 >= -2597
 c194: u_a7 - u_a1 - 932 y_a1_proc_0 >= -2596
 c195: u_a7 - u_a1 - 1230 y_a1_proc_1 >= 0
 c196: u_a1 - u_a7 - 431 y_a7_proc_0 >= -2597
 c197: u_a1 - u_a7 - 398 y_a7_proc_1 >= -1
 c198: u_a8 - u_a1 - 712 y_a1_proc_2 >= -2595
 c199: u_a1 - u_a8 - 1175 y_a8_proc_2 >= -2
 c200: u_a9 - u_a1 - 712 y_a1_proc_2 >= -2596
 c201: u_a9 - u_a1 - 1230 y_a1_proc_1 >= -2596
 c202: u_a1 - u_a9 - 836 y_a9_proc_2 >= -1
 c203: u_a1 - u_a9 - 1088 y_a9_proc_1 >= -1
 c204: u_a10 - u_a1 - 712 y_a1_proc_2 >= -3894
 c205: u_a10 - u_a1 - 932 y_a1_proc_0 >= -2596
 c206: u_a10 - u_a1 - 1230 y_a1_proc_1 >= -2596
 c207: u_a1 - u_a10 - 1069 y_a10_proc_2 >= -1299
 c208: u_a1 - u_a10 - 593 y_a10_proc_0 >= -1
 c209: u_a1 - u_a10 - 1287 y_a10_proc_1 >= -1
 c210: u_a11 - u_a1 - 712 y_a1_proc_2 >= 0
 c211: u_a11 - u_a1 - 932 y_a1_proc_0 >= -1298
 c212: u_a11 - u_a1 - 1230 y_a1_proc_1 >= 0
 c213: u_a1 - u_a11 - 399 y_a11_proc_2 >= -2597
 c214: u_a1 - u_a11 - 426 y_a11_proc_0 >= -3895
 c215: u_a1 - u_a11 - 939 y_a11_proc_1 >= -2597
 c216: u_a12 - u_a1 - 932 y_a1_proc_0 >= -2596
 c217: u_a12 - u_a1 - 1230 y_a1_proc_1 >= 0
 c218: u_a1 - u_a12 - 701 y_a12_proc_0 >= -2597
 c219: u_a1 - u_a12 - 928 y_a12_proc_1 >= -1
 c220: u_a13 - u_a1 - 712 y_a1_proc_2 >= -2627
 c221: u_a13 - u_a1 - 932 y_a1_proc_0 >= -1329
 c222: u_a1 - u_a13 - 1203 y_a13_proc_2 >= -2566
 c223: u_a1 - u_a13 - 940 y_a13_proc_0 >= -1268
 c224: u_a14 - u_a1 - 712 y_a1_proc_2 >= -2596
 c225: u_a14 - u_a1 - 932 y_a1_proc_0 >= -3894
 c226: u_a14 - u_a1 - 1230 y_a1_proc_1 >= -2596
 c227: u_a1 - u_a14 - 448 y_a14_proc_2 >= -1
 c228: u_a1 - u_a14 - 982 y_a14_proc_0 >= -1299
 c229: u_a1 - u_a14 - 1177 y_a14_proc_1 >= -1
 c230: u_a3 - u_a2 - 532 y_a2_proc_0 >= -2597
 c231: u_a3 - u_a2 - 496 y_a2_proc_1 >= -1
 c232: u_a2 - u_a3 - 505 y_a3_proc_0 >= -2596
 c233: u_a2 - u_a3 - 502 y_a3_proc_1 >= 0
 c234: u_a4 - u_a2 - 532 y_a2_proc_0 >= -3895
 c235: u_a4 - u_a2 - 496 y_a2_proc_1 >= -2597
 c236: u_a2 - u_a4 - 1257 y_a4_proc_0 >= -1298
 c237: u_a2 - u_a4 - 782 y_a4_proc_1 >= 0
 c238: u_a5 - u_a2 - 532 y_a2_proc_0 >= -1
 c239: u_a5 - u_a2 - 496 y_a2_proc_1 >= -1
 c240: u_a2 - u_a5 - 640 y_a5_proc_0 >= -2596
 c241: u_a2 - u_a5 - 1217 y_a5_proc_1 >= -2596
 c242: u_a6 - u_a2 - 532 y_a2_proc_0 >= -2597
 c243: u_a6 - u_a2 - 496 y_a2_proc_1 >= -2597
 c244: u_a2 - u_a6 - 1126 y_a6_proc_0 >= 0
 c245: u_a2 - u_a6 - 1261 y_a6_proc_1 >= 0
 c246: u_a7 - u_a2 - 532 y_a2_proc_0 >= -2598
 c247: u_a7 - u_a2 - 496 y_a2_proc_1 >= -2
 c248: u_a2 - u_a7 - 431 y_a7_proc_0 >= -2595
 c249: u_a2 - u_a7 - 398 y_a7_proc_1 >= 1
 c250: u_a9 - u_a2 - 496 y_a2_proc_1 >= -2598
 c251: u_a2 - u_a9 - 1088 y_a9_proc_1 >= 1
 c252: u_a10 - u_a2 - 532 y_a2_proc_0 >= -1
 c253: u_a10 - u_a2 - 496 y_a2_proc_1 >= -1
 c254: u_a2 - u_a10 - 593 y_a10_proc_0 >= -2596
 c255: u_a2 - u_a10 - 1287 y_a10_proc_1 >= -2596
 c256: u_a11 - u_a2 - 532 y_a2_proc_0 >= -3895
 c257: u_a11 - u_a2 - 496 y_a2_proc_1 >= -2597
 c258: u_a2 - u_a11 - 426 y_a11_proc_0 >= -1298
 c259: u_a2 - u_a11 - 939 y_a11_proc_1 >= 0
 c260: u_a12 - u_a2 - 532 y_a2_proc_0 >= -2597
 c261: u_a12 - u_a2 - 496 y_a2_proc_1 >= -1
 c262: u_a2 - u_a12 - 701 y_a12_proc_0 >= -2596
 c263: u_a2 - u_a12 - 928 y_a12_proc_1 >= 0
 c264: u_a13 - u_a2 - 532 y_a2_proc_0 >= -703
 c265: u_a2 - u_a13 - 940 y_a13_proc_0 >= -1894
 c266: u_a14 - u_a2 - 532 y_a2_proc_0 >= -3895
 c267: u_a14 - u_a2 - 496 y_a2_proc_1 >= -2597
 c268: u_a2 - u_a14 - 982 y_a14_proc_0 >= -1298
 c269: u_a2 - u_a14 - 1177 y_a14_proc_1 >= 0
 c270: u_a4 - u_a3 - 1063 y_a3_proc_2 >= 0
 c271: u_a4 - u_a3 - 505 y_a3_proc_0 >= -1298
 c272: u_a4 - u_a3 - 502 y_a3_proc_1 >= 0
 c273: u_a3 - u_a4 - 747 y_a4_proc_2 >= -2597
 c274: u_a3 - u_a4 - 1257 y_a4_proc_0 >= -3895
 c275: u_a3 - u_a4 - 782 y_a4_proc_1 >= -2597
 c276: u_a5 - u_a3 - 1063 y_a3_proc_2 >= -3895
 c277: u_a5 - u_a3 - 505 y_a3_proc_0 >= -2597
 c278: u_a5 - u_a3 - 502 y_a3_proc_1 >= -2597
 c279: u_a3 - u_a5 - 1050 y_a5_proc_2 >= -1298
 c280: u_a3 - u_a5 - 640 y_a5_proc_0 >= 0
 c281: u_a3 - u_a5 - 1217 y_a5_proc_1 >= 0
 c282: u_a6 - u_a3 - 1063 y_a3_proc_2 >= -2643
 c283: u_a6 - u_a3 - 505 y_a3_proc_0 >= -1345
 c284: u_a6 - u_a3 - 502 y_a3_proc_1 >= -1345
 c285: u_a3 - u_a6 - 771 y_a6_proc_2 >= -2550
 c286: u_a3 - u_a6 - 1126 y_a6_proc_0 >= -1252
 c287: u_a3 - u_a6 - 1261 y_a6_proc_1 >= -1252
 c288: u_a7 - u_a3 - 505 y_a3_proc_0 >= -2597
 c289: u_a7 - u_a3 - 502 y_a3_proc_1 >= -1
 c290: u_a3 - u_a7 - 431 y_a7_proc_0 >= -2596
 c291: u_a3 - u_a7 - 398 y_a7_proc_1 >= 0
 c292: u_a8 - u_a3 - 1063 y_a3_proc_2 >= -2596
 c293: u_a3 - u_a8 - 1175 y_a8_proc_2 >= -1
 c294: u_a9 - u_a3 - 1063 y_a3_proc_2 >= -2597
 c295: u_a9 - u_a3 - 502 y_a3_proc_1 >= -2597
 c296: u_a3 - u_a9 - 836 y_a9_proc_2 >= 0
 c297: u_a3 - u_a9 - 1088 y_a9_proc_1 >= 0
 c298: u_a10 - u_a3 - 1063 y_a3_proc_2 >= -3894
 c299: u_a10 - u_a3 - 505 y_a3_proc_0 >= -2596
 c300: u_a10 - u_a3 - 502 y_a3_proc_1 >= -2596
 c301: u_a3 - u_a10 - 1069 y_a10_proc_2 >= -1299
 c302: u_a3 - u_a10 - 593 y_a10_proc_0 >= -1
 c303: u_a3 - u_a10 - 1287 y_a10_proc_1 >= -1
 c304: u_a11 - u_a3 - 1063 y_a3_proc_2 >= -2597
 c305: u_a11 - u_a3 - 505 y_a3_proc_0 >= -3895
 c306: u_a11 - u_a3 - 502 y_a3_proc_1 >= -2597
 c307: u_a3 - u_a11 - 399 y_a11_proc_2 >= 0
 c308: u_a3 - u_a11 - 426 y_a11_proc_0 >= -1298
 c309: u_a3 - u_a11 - 939 y_a11_proc_1 >= 0
 c310: u_a12 - u_a3 - 505 y_a3_proc_0 >= -2597
 c311: u_a12 - u_a3 - 502 y_a3_proc_1 >= -1
 c312: u_a3 - u_a12 - 701 y_a12_proc_0 >= -2596
 c313: u_a3 - u_a12 - 928 y_a12_proc_1 >= 0
 c314: u_a13 - u_a3 - 1063 y_a3_proc_2 >= -3895
 c315: u_a13 - u_a3 - 505 y_a3_proc_0 >= -2597
 c316: u_a3 - u_a13 - 1203 y_a13_proc_2 >= -1298
 c317: u_a3 - u_a13 - 940 y_a13_proc_0 >= 0
 c318: u_a14 - u_a3 - 1063 y_a3_proc_2 >= -2597
 c319: u_a14 - u_a3 - 505 y_a3_proc_0 >= -3895
 c320: u_a14 - u_a3 - 502 y_a3_proc_1 >= -2597
 c321: u_a3 - u_a14 - 448 y_a14_proc_2 >= 0
 c322: u_a3 - u_a14 - 982 y_a14_proc_0 >= -1298
 c323: u_a3 - u_a14 - 1177 y_a14_proc_1 >= 0
 c324: u_a5 - u_a4 - 747 y_a4_proc_2 >= -824
 c325: u_a5 - u_a4 - 1257 y_a4_proc_0 >= -824
 c326: u_a5 - u_a4 - 782 y_a4_proc_1 >= -2122
 c327: u_a4 - u_a5 - 1050 y_a5_proc_2 >= -1773
 c328: u_a4 - u_a5 - 640 y_a5_proc_0 >= -1773
 c329: u_a4 - u_a5 - 1217 y_a5_proc_1 >= -3071
 c330: u_a6 - u_a4 - 747 y_a4_proc_2 >= -2596
 c331: u_a6 - u_a4 - 1257 y_a4_proc_0 >= -2596
 c332: u_a6 - u_a4 - 782 y_a4_proc_1 >= -3894
 c333: u_a4 - u_a6 - 771 y_a6_proc_2 >= -1
 c334: u_a4 - u_a6 - 1126 y_a6_proc_0 >= -1
 c335: u_a4 - u_a6 - 1261 y_a6_proc_1 >= -1299
 c336: u_a7 - u_a4 - 1257 y_a4_proc_0 >= -3895
 c337: u_a7 - u_a4 - 782 y_a4_proc_1 >= -2597
 c338: u_a4 - u_a7 - 431 y_a7_proc_0 >= -1298
 c339: u_a4 - u_a7 - 398 y_a7_proc_1 >= 0
 c340: u_a8 - u_a4 - 747 y_a4_proc_2 >= -1
 c341: u_a4 - u_a8 - 1175 y_a8_proc_2 >= 0
 c342: u_a9 - u_a4 - 747 y_a4_proc_2 >= -1
 c343: u_a9 - u_a4 - 782 y_a4_proc_1 >= -2597
 c344: u_a4 - u_a9 - 836 y_a9_proc_2 >= 0
 c345: u_a4 - u_a9 - 1088 y_a9_proc_1 >= -2596
 c346: u_a10 - u_a4 - 747 y_a4_proc_2 >= -1
 c347: u_a10 - u_a4 - 1257 y_a4_proc_0 >= -1
 c348: u_a10 - u_a4 - 782 y_a4_proc_1 >= -1299
 c349: u_a4 - u_a10 - 1069 y_a10_proc_2 >= -2596
 c350: u_a4 - u_a10 - 593 y_a10_proc_0 >= -2596
 c351: u_a4 - u_a10 - 1287 y_a10_proc_1 >= -3894
 c352: u_a11 - u_a4 - 747 y_a4_proc_2 >= -1
 c353: u_a11 - u_a4 - 1257 y_a4_proc_0 >= -2597
 c354: u_a11 - u_a4 - 782 y_a4_proc_1 >= -2597
 c355: u_a4 - u_a11 - 399 y_a11_proc_2 >= 0
 c356: u_a4 - u_a11 - 426 y_a11_proc_0 >= -2596
 c357: u_a4 - u_a11 - 939 y_a11_proc_1 >= -2596
 c358: u_a12 - u_a4 - 1257 y_a4_proc_0 >= -3895
 c359: u_a12 - u_a4 - 782 y_a4_proc_1 >= -2597
 c360: u_a4 - u_a12 - 701 y_a12_proc_0 >= -1298
 c361: u_a4 - u_a12 - 928 y_a12_proc_1 >= 0
 c362: u_a13 - u_a4 - 747 y_a4_proc_2 >= -2597
 c363: u_a13 - u_a4 - 1257 y_a4_proc_0 >= -2597
 c364: u_a4 - u_a13 - 1203 y_a13_proc_2 >= 0
 c365: u_a4 - u_a13 - 940 y_a13_proc_0 >= 0
 c366: u_a14 - u_a4 - 747 y_a4_proc_2 >= -1
 c367: u_a14 - u_a4 - 1257 y_a4_proc_0 >= -2597
 c368: u_a14 - u_a4 - 782 y_a4_proc_1 >= -2597
 c369: u_a4 - u_a14 - 448 y_a14_proc_2 >= 0
 c370: u_a4 - u_a14 - 982 y_a14_proc_0 >= -2596
 c371: u_a4 - u_a14 - 1177 y_a14_proc_1 >= -2596
 c372: u_a6 - u_a5 - 1050 y_a5_proc_2 >= -2596
 c373: u_a6 - u_a5 - 640 y_a5_proc_0 >= 0
 c374: u_a6 - u_a5 - 1217 y_a5_proc_1 >= -2596
 c375: u_a5 - u_a6 - 771 y_a6_proc_2 >= -2597
 c376: u_a5 - u_a6 - 1126 y_a6_proc_0 >= -1
 c377: u_a5 - u_a6 - 1261 y_a6_proc_1 >= -2597
 c378: u_a7 - u_a5 - 640 y_a5_proc_0 >= -2597
 c379: u_a7 - u_a5 - 1217 y_a5_proc_1 >= -2597
 c380: u_a5 - u_a7 - 431 y_a7_proc_0 >= 0
 c381: u_a5 - u_a7 - 398 y_a7_proc_1 >= 0
 c382: u_a8 - u_a5 - 1050 y_a5_proc_2 >= -2596
 c383: u_a5 - u_a8 - 1175 y_a8_proc_2 >= -1
 c384: u_a9 - u_a5 - 1050 y_a5_proc_2 >= -2597
 c385: u_a9 - u_a5 - 1217 y_a5_proc_1 >= -3895
 c386: u_a5 - u_a9 - 836 y_a9_proc_2 >= 0
 c387: u_a5 - u_a9 - 1088 y_a9_proc_1 >= -1298
 c388: u_a10 - u_a5 - 1050 y_a5_proc_2 >= -2596
 c389: u_a10 - u_a5 - 640 y_a5_proc_0 >= 0
 c390: u_a10 - u_a5 - 1217 y_a5_proc_1 >= -2596
 c391: u_a5 - u_a10 - 1069 y_a10_proc_2 >= -2597
 c392: u_a5 - u_a10 - 593 y_a10_proc_0 >= -1
 c393: u_a5 - u_a10 - 1287 y_a10_proc_1 >= -2597
 c394: u_a11 - u_a5 - 1050 y_a5_proc_2 >= -2596
 c395: u_a11 - u_a5 - 640 y_a5_proc_0 >= -2596
 c396: u_a11 - u_a5 - 1217 y_a5_proc_1 >= -3894
 c397: u_a5 - u_a11 - 399 y_a11_proc_2 >= -1
 c398: u_a5 - u_a11 - 426 y_a11_proc_0 >= -1
 c399: u_a5 - u_a11 - 939 y_a11_proc_1 >= -1299
 c400: u_a12 - u_a5 - 640 y_a5_proc_0 >= -2596
 c401: u_a12 - u_a5 - 1217 y_a5_proc_1 >= -2596
 c402: u_a5 - u_a12 - 701 y_a12_proc_0 >= -1
 c403: u_a5 - u_a12 - 928 y_a12_proc_1 >= -1
 c404: u_a13 - u_a5 - 1050 y_a5_proc_2 >= -2596
 c405: u_a13 - u_a5 - 640 y_a5_proc_0 >= 0
 c406: u_a5 - u_a13 - 1203 y_a13_proc_2 >= -2597
 c407: u_a5 - u_a13 - 940 y_a13_proc_0 >= -1
 c408: u_a14 - u_a5 - 1050 y_a5_proc_2 >= -2596
 c409: u_a14 - u_a5 - 640 y_a5_proc_0 >= -2596
 c410: u_a14 - u_a5 - 1217 y_a5_proc_1 >= -3894
 c411: u_a5 - u_a14 - 448 y_a14_proc_2 >= -1
 c412: u_a5 - u_a14 - 982 y_a14_proc_0 >= -1
 c413: u_a5 - u_a14 - 1177 y_a14_proc_1 >= -1299
 c414: u_a7 - u_a6 - 1126 y_a6_proc_0 >= -1
 c415: u_a7 - u_a6 - 1261 y_a6_proc_1 >= -1
 c416: u_a6 - u_a7 - 431 y_a7_proc_0 >= -2596
 c417: u_a6 - u_a7 - 398 y_a7_proc_1 >= -2596
 c418: u_a8 - u_a6 - 771 y_a6_proc_2 >= -1
 c419: u_a6 - u_a8 - 1175 y_a8_proc_2 >= -2596
 c420: u_a9 - u_a6 - 771 y_a6_proc_2 >= -2547
 c421: u_a9 - u_a6 - 1261 y_a6_proc_1 >= -3845
 c422: u_a6 - u_a9 - 836 y_a9_proc_2 >= -50
 c423: u_a6 - u_a9 - 1088 y_a9_proc_1 >= -1348
 c424: u_a10 - u_a6 - 771 y_a6_proc_2 >= -2597
 c425: u_a10 - u_a6 - 1126 y_a6_proc_0 >= -1
 c426: u_a10 - u_a6 - 1261 y_a6_proc_1 >= -2597
 c427: u_a6 - u_a10 - 1069 y_a10_proc_2 >= -2596
 c428: u_a6 - u_a10 - 593 y_a10_proc_0 >= 0
 c429: u_a6 - u_a10 - 1287 y_a10_proc_1 >= -2596
 c430: u_a11 - u_a6 - 771 y_a6_proc_2 >= -2597
 c431: u_a11 - u_a6 - 1126 y_a6_proc_0 >= -2597
 c432: u_a11 - u_a6 - 1261 y_a6_proc_1 >= -3895
 c433: u_a6 - u_a11 - 399 y_a11_proc_2 >= 0
 c434: u_a6 - u_a11 - 426 y_a11_proc_0 >= 0
 c435: u_a6 - u_a11 - 939 y_a11_proc_1 >= -1298
 c436: u_a12 - u_a6 - 1126 y_a6_proc_0 >= -2597
 c437: u_a12 - u_a6 - 1261 y_a6_proc_1 >= -2597
 c438: u_a6 - u_a12 - 701 y_a12_proc_0 >= 0
 c439: u_a6 - u_a12 - 928 y_a12_proc_1 >= 0
 c440: u_a13 - u_a6 - 771 y_a6_proc_2 >= -2597
 c441: u_a13 - u_a6 - 1126 y_a6_proc_0 >= -1
 c442: u_a6 - u_a13 - 1203 y_a13_proc_2 >= -2596
 c443: u_a6 - u_a13 - 940 y_a13_proc_0 >= 0
 c444: u_a14 - u_a6 - 771 y_a6_proc_2 >= -2597
 c445: u_a14 - u_a6 - 1126 y_a6_proc_0 >= -2597
 c446: u_a14 - u_a6 - 1261 y_a6_proc_1 >= -3895
 c447: u_a6 - u_a14 - 448 y_a14_proc_2 >= 0
 c448: u_a6 - u_a14 - 982 y_a14_proc_0 >= 0
 c449: u_a6 - u_a14 - 1177 y_a14_proc_1 >= -1298
 c450: u_a9 - u_a7 - 398 y_a7_proc_1 >= -2596
 c451: u_a7 - u_a9 - 1088 y_a9_proc_1 >= -1
 c452: u_a10 - u_a7 - 431 y_a7_proc_0 >= 0
 c453: u_a10 - u_a7 - 398 y_a7_proc_1 >= 0
 c454: u_a7 - u_a10 - 593 y_a10_proc_0 >= -2597
 c455: u_a7 - u_a10 - 1287 y_a10_proc_1 >= -2597
 c456: u_a11 - u_a7 - 431 y_a7_proc_0 >= -3894
 c457: u_a11 - u_a7 - 398 y_a7_proc_1 >= -2596
 c458: u_a7 - u_a11 - 426 y_a11_proc_0 >= -1299
 c459: u_a7 - u_a11 - 939 y_a11_proc_1 >= -1
 c460: u_a12 - u_a7 - 431 y_a7_proc_0 >= -2596
 c461: u_a12 - u_a7 - 398 y_a7_proc_1 >= 0
 c462: u_a7 - u_a12 - 701 y_a12_proc_0 >= -2597
 c463: u_a7 - u_a12 - 928 y_a12_proc_1 >= -1
 c464: u_a13 - u_a7 - 431 y_a7_proc_0 >= -2596
 c465: u_a7 - u_a13 - 940 y_a13_proc_0 >= -1
 c466: u_a14 - u_a7 - 431 y_a7_proc_0 >= -1298
 c467: u_a14 - u_a7 - 398 y_a7_proc_1 >= 0
 c468: u_a7 - u_a14 - 982 y_a14_proc_0 >= -3895
 c469: u_a7 - u_a14 - 1177 y_a14_proc_1 >= -2597
 c470: u_a9 - u_a8 - 1175 y_a8_proc_2 >= -1
 c471: u_a8 - u_a9 - 836 y_a9_proc_2 >= 0
 c472: u_a10 - u_a8 - 1175 y_a8_proc_2 >= -2597
 c473: u_a8 - u_a10 - 1069 y_a10_proc_2 >= 0
 c474: u_a11 - u_a8 - 1175 y_a8_proc_2 >= -1
 c475: u_a8 - u_a11 - 399 y_a11_proc_2 >= 0
 c476: u_a13 - u_a8 - 1175 y_a8_proc_2 >= -2597
 c477: u_a8 - u_a13 - 1203 y_a13_proc_2 >= 0
 c478: u_a14 - u_a8 - 1175 y_a8_proc_2 >= -1
 c479: u_a8 - u_a14 - 448 y_a14_proc_2 >= 0
 c480: u_a10 - u_a9 - 836 y_a9_proc_2 >= -2596
 c481: u_a10 - u_a9 - 1088 y_a9_proc_1 >= -3894
 c482: u_a9 - u_a10 - 1069 y_a10_proc_2 >= -1
 c483: u_a9 - u_a10 - 1287 y_a10_proc_1 >= -1299
 c484: u_a11 - u_a9 - 836 y_a9_proc_2 >= 0
 c485: u_a11 - u_a9 - 1088 y_a9_proc_1 >= -2596
 c486: u_a9 - u_a11 - 399 y_a11_proc_2 >= -1
 c487: u_a9 - u_a11 - 939 y_a11_proc_1 >= -2597
 c488: u_a12 - u_a9 - 1088 y_a9_proc_1 >= 0
 c489: u_a9 - u_a12 - 928 y_a12_proc_1 >= -2597
 c490: u_a13 - u_a9 - 836 y_a9_proc_2 >= -2596
 c491: u_a9 - u_a13 - 1203 y_a13_proc_2 >= -1
 c492: u_a14 - u_a9 - 836 y_a9_proc_2 >= 0
 c493: u_a14 - u_a9 - 1088 y_a9_proc_1 >= -2596
 c494: u_a9 - u_a14 - 448 y_a14_proc_2 >= -1
 c495: u_a9 - u_a14 - 1177 y_a14_proc_1 >= -2597
 c496: u_a11 - u_a10 - 1069 y_a10_proc_2 >= -1
 c497: u_a11 - u_a10 - 593 y_a10_proc_0 >= -1
 c498: u_a11 - u_a10 - 1287 y_a10_proc_1 >= -1299
 c499: u_a10 - u_a11 - 399 y_a11_proc_2 >= -2596
 c500: u_a10 - u_a11 - 426 y_a11_proc_0 >= -2596
 c501: u_a10 - u_a11 - 939 y_a11_proc_1 >= -3894
 c502: u_a12 - u_a10 - 593 y_a10_proc_0 >= -2597
 c503: u_a12 - u_a10 - 1287 y_a10_proc_1 >= -2597
 c504: u_a10 - u_a12 - 701 y_a12_proc_0 >= 0
 c505: u_a10 - u_a12 - 928 y_a12_proc_1 >= 0
 c506: u_a13 - u_a10 - 1069 y_a10_proc_2 >= -2597
 c507: u_a13 - u_a10 - 593 y_a10_proc_0 >= -1
 c508: u_a10 - u_a13 - 1203 y_a13_proc_2 >= -2596
 c509: u_a10 - u_a13 - 940 y_a13_proc_0 >= 0
 c510: u_a14 - u_a10 - 1069 y_a10_proc_2 >= -2597
 c511: u_a14 - u_a10 - 593 y_a10_proc_0 >= -2597
 c512: u_a14 - u_a10 - 1287 y_a10_proc_1 >= -3895
 c513: u_a10 - u_a14 - 448 y_a14_proc_2 >= 0
 c514: u_a10 - u_a14 - 982 y_a14_proc_0 >= 0
 c515: u_a10 - u_a14 - 1177 y_a14_proc_1 >= -1298
 c516: u_a12 - u_a11 - 426 y_a11_proc_0 >= -1299
 c517: u_a12 - u_a11 - 939 y_a11_proc_1 >= -1
 c518: u_a11 - u_a12 - 701 y_a12_proc_0 >= -3894
 c519: u_a11 - u_a12 - 928 y_a12_proc_1 >= -2596
 c520: u_a13 - u_a11 - 399 y_a11_proc_2 >= -1
 c521: u_a13 - u_a11 - 426 y_a11_proc_0 >= -1
 c522: u_a11 - u_a13 - 1203 y_a13_proc_2 >= -2596
 c523: u_a11 - u_a13 - 940 y_a13_proc_0 >= -2596
 c524: u_a14 - u_a11 - 399 y_a11_proc_2 >= -1
 c525: u_a14 - u_a11 - 426 y_a11_proc_0 >= -2597
 c526: u_a14 - u_a11 - 939 y_a11_proc_1 >= -2597
 c527: u_a11 - u_a14 - 448 y_a14_proc_2 >= 0
 c528: u_a11 - u_a14 - 982 y_a14_proc_0 >= -2596
 c529: u_a11 - u_a14 - 1177 y_a14_proc_1 >= -2596
 c530: u_a13 - u_a12 - 701 y_a12_proc_0 >= -2596
 c531: u_a12 - u_a13 - 940 y_a13_proc_0 >= -1
 c532: u_a14 - u_a12 - 701 y_a12_proc_0 >= -3894
 c533: u_a14 - u_a12 - 928 y_a12_proc_1 >= -2596
 c534: u_a12 - u_a14 - 982 y_a14_proc_0 >= -1299
 c535: u_a12 - u_a14 - 1177 y_a14_proc_1 >= -1
 c536: u_a14 - u_a13 - 1203 y_a13_proc_2 >= -2380
 c537: u_a14 - u_a13 - 940 y_a13_proc_0 >= -2380
 c538: u_a13 - u_a14 - 448 y_a14_proc_2 >= -217
 c539: u_a13 - u_a14 - 982 y_a14_proc_0 >= -217

Bounds
End
